Maximize
 0
Subject To
 epc_0!1: -50.790983039765194 y_1!1_2!1 -59.50875301632463 y_1!2_2!1 -9.054302471833921 y_1!3_2!1 -39.07940596518002 y_1!1_2!2 -76.59646643983149 y_1!2_2!2 +34.349130795644584 y_1!3_2!2 -18.365762760258917 y_1!1_2!3 -72.904912504027 y_1!2_2!3 -24.015080289938624 y_1!3_2!3 + lambda_0!1 - mu_0 = 0
 epc_0!2: -61.67544983639286 y_1!1_2!1 -25.251638405609896 y_1!2_2!1 +55.51229701223514 y_1!3_2!1 -23.54295244061268 y_1!1_2!2 +28.862876687917947 y_1!2_2!2 -26.338112583795976 y_1!3_2!2 +22.336478445324317 y_1!1_2!3 -13.751102541174959 y_1!2_2!3 +75.45876504736805 y_1!3_2!3 + lambda_0!2 - mu_0 = 0
 epc_0!3: -81.30289793130494 y_1!1_2!1 -54.4681588969363 y_1!2_2!1 +4.70022019999962 y_1!3_2!1 -22.588404292837467 y_1!1_2!2 +16.702029827148877 y_1!2_2!2 +36.45619726967041 y_1!3_2!2 +31.609602945278652 y_1!1_2!3 +83.40393360495585 y_1!2_2!3 +21.3700612734052 y_1!3_2!3 + lambda_0!3 - mu_0 = 0
 dc_0: x_0!1 + x_0!2 + x_0!3 = 1
 bc_0!1: lambda_0!1 +295.92826640058405 x_0!1 <= 295.92826640058405
 bc_0!2: lambda_0!2 +295.92826640058405 x_0!2 <= 295.92826640058405
 bc_0!3: lambda_0!3 +295.92826640058405 x_0!3 <= 295.92826640058405
 sum_0!1: y_1!1_2!1 - x_1!1 - x_2!1 >= -1
 idk_0!1!1: y_1!1_2!1 - x_1!1 <= 0
 idk_0!1!2: y_1!1_2!1 - x_2!1 <= 0
 sum_0!2: y_1!2_2!1 - x_1!2 - x_2!1 >= -1
 idk_0!2!1: y_1!2_2!1 - x_1!2 <= 0
 idk_0!2!2: y_1!2_2!1 - x_2!1 <= 0
 sum_0!3: y_1!3_2!1 - x_1!3 - x_2!1 >= -1
 idk_0!3!1: y_1!3_2!1 - x_1!3 <= 0
 idk_0!3!2: y_1!3_2!1 - x_2!1 <= 0
 sum_0!4: y_1!1_2!2 - x_1!1 - x_2!2 >= -1
 idk_0!4!1: y_1!1_2!2 - x_1!1 <= 0
 idk_0!4!2: y_1!1_2!2 - x_2!2 <= 0
 sum_0!5: y_1!2_2!2 - x_1!2 - x_2!2 >= -1
 idk_0!5!1: y_1!2_2!2 - x_1!2 <= 0
 idk_0!5!2: y_1!2_2!2 - x_2!2 <= 0
 sum_0!6: y_1!3_2!2 - x_1!3 - x_2!2 >= -1
 idk_0!6!1: y_1!3_2!2 - x_1!3 <= 0
 idk_0!6!2: y_1!3_2!2 - x_2!2 <= 0
 sum_0!7: y_1!1_2!3 - x_1!1 - x_2!3 >= -1
 idk_0!7!1: y_1!1_2!3 - x_1!1 <= 0
 idk_0!7!2: y_1!1_2!3 - x_2!3 <= 0
 sum_0!8: y_1!2_2!3 - x_1!2 - x_2!3 >= -1
 idk_0!8!1: y_1!2_2!3 - x_1!2 <= 0
 idk_0!8!2: y_1!2_2!3 - x_2!3 <= 0
 sum_0!9: y_1!3_2!3 - x_1!3 - x_2!3 >= -1
 idk_0!9!1: y_1!3_2!3 - x_1!3 <= 0
 idk_0!9!2: y_1!3_2!3 - x_2!3 <= 0
 epc_1!1: -15.086955950403663 y_0!1_2!1 -80.92041342097585 y_0!2_2!1 -70.40087288917867 y_0!3_2!1 +98.91028050335987 y_0!1_2!2 +61.09429356134385 y_0!2_2!2 +21.80775793090963 y_0!3_2!2 +34.590549804918226 y_0!1_2!3 +30.624406658936778 y_0!2_2!3 -97.0179858972242 y_0!3_2!3 + lambda_1!1 - mu_1 = 0
 epc_1!2: +54.09923882131238 y_0!1_2!1 +92.25250300628804 y_0!2_2!1 -70.74793663414339 y_0!3_2!1 +48.01125522222085 y_0!1_2!2 +76.83444060163279 y_0!2_2!2 -61.73689897062691 y_0!3_2!2 +47.94802185118459 y_0!1_2!3 -75.26563521740879 y_0!2_2!3 +77.78460961655497 y_0!3_2!3 + lambda_1!2 - mu_1 = 0
 epc_1!3: +79.63413908645222 y_0!1_2!1 -4.981298563152862 y_0!2_2!1 +57.533248984556536 y_0!3_2!1 -4.976104824068514 y_0!1_2!2 -39.308017429088494 y_0!2_2!2 +24.71650668635084 y_0!3_2!2 +68.21310601092807 y_0!1_2!3 +0.19127969410031653 y_0!2_2!3 +44.883760397952756 y_0!3_2!3 + lambda_1!3 - mu_1 = 0
 dc_1: x_1!1 + x_1!2 + x_1!3 = 1
 bc_1!1: lambda_1!1 +295.92826640058405 x_1!1 <= 295.92826640058405
 bc_1!2: lambda_1!2 +295.92826640058405 x_1!2 <= 295.92826640058405
 bc_1!3: lambda_1!3 +295.92826640058405 x_1!3 <= 295.92826640058405
 sum_1!1: y_0!1_2!1 - x_0!1 - x_2!1 >= -1
 idk_1!1!0: y_0!1_2!1 - x_0!1 <= 0
 idk_1!1!2: y_0!1_2!1 - x_2!1 <= 0
 sum_1!2: y_0!2_2!1 - x_0!2 - x_2!1 >= -1
 idk_1!2!0: y_0!2_2!1 - x_0!2 <= 0
 idk_1!2!2: y_0!2_2!1 - x_2!1 <= 0
 sum_1!3: y_0!3_2!1 - x_0!3 - x_2!1 >= -1
 idk_1!3!0: y_0!3_2!1 - x_0!3 <= 0
 idk_1!3!2: y_0!3_2!1 - x_2!1 <= 0
 sum_1!4: y_0!1_2!2 - x_0!1 - x_2!2 >= -1
 idk_1!4!0: y_0!1_2!2 - x_0!1 <= 0
 idk_1!4!2: y_0!1_2!2 - x_2!2 <= 0
 sum_1!5: y_0!2_2!2 - x_0!2 - x_2!2 >= -1
 idk_1!5!0: y_0!2_2!2 - x_0!2 <= 0
 idk_1!5!2: y_0!2_2!2 - x_2!2 <= 0
 sum_1!6: y_0!3_2!2 - x_0!3 - x_2!2 >= -1
 idk_1!6!0: y_0!3_2!2 - x_0!3 <= 0
 idk_1!6!2: y_0!3_2!2 - x_2!2 <= 0
 sum_1!7: y_0!1_2!3 - x_0!1 - x_2!3 >= -1
 idk_1!7!0: y_0!1_2!3 - x_0!1 <= 0
 idk_1!7!2: y_0!1_2!3 - x_2!3 <= 0
 sum_1!8: y_0!2_2!3 - x_0!2 - x_2!3 >= -1
 idk_1!8!0: y_0!2_2!3 - x_0!2 <= 0
 idk_1!8!2: y_0!2_2!3 - x_2!3 <= 0
 sum_1!9: y_0!3_2!3 - x_0!3 - x_2!3 >= -1
 idk_1!9!0: y_0!3_2!3 - x_0!3 <= 0
 idk_1!9!2: y_0!3_2!3 - x_2!3 <= 0
 epc_2!1: +59.24907998743555 y_0!1_1!1 -48.49448607734133 y_0!2_1!1 -94.6670827618792 y_0!3_1!1 -41.62457570131642 y_0!1_1!2 -37.40773145729428 y_0!2_1!2 -33.87440662558659 y_0!3_1!2 -11.483558170959355 y_0!1_1!3 +57.208379425180965 y_0!2_1!3 +53.56525671127764 y_0!3_1!3 + lambda_2!1 - mu_2 = 0
 epc_2!2: +31.38471814114189 y_0!1_1!1 -7.244284142546988 y_0!2_1!1 -60.526857833216276 y_0!3_1!1 +42.14648773427419 y_0!1_1!2 -38.16582439840661 y_0!2_1!2 -48.46369366114085 y_0!3_1!2 -9.673926281713264 y_0!1_1!3 +76.5798786656024 y_0!2_1!3 +90.8189309476196 y_0!3_1!3 + lambda_2!2 - mu_2 = 0
 epc_2!3: -85.86958985524889 y_0!1_1!1 +75.67725467359102 y_0!2_1!1 -57.581620896022876 y_0!3_1!1 +82.58045468140597 y_0!1_1!2 -1.9770034020751126 y_0!2_1!2 -9.814444985618323 y_0!3_1!2 -3.2874791211480385 y_0!1_1!3 +76.86019608928046 y_0!2_1!3 -35.775972210817 y_0!3_1!3 + lambda_2!3 - mu_2 = 0
 dc_2: x_2!1 + x_2!2 + x_2!3 = 1
 bc_2!1: lambda_2!1 +295.92826640058405 x_2!1 <= 295.92826640058405
 bc_2!2: lambda_2!2 +295.92826640058405 x_2!2 <= 295.92826640058405
 bc_2!3: lambda_2!3 +295.92826640058405 x_2!3 <= 295.92826640058405
 sum_2!1: y_0!1_1!1 - x_0!1 - x_1!1 >= -1
 idk_2!1!0: y_0!1_1!1 - x_0!1 <= 0
 idk_2!1!1: y_0!1_1!1 - x_1!1 <= 0
 sum_2!2: y_0!2_1!1 - x_0!2 - x_1!1 >= -1
 idk_2!2!0: y_0!2_1!1 - x_0!2 <= 0
 idk_2!2!1: y_0!2_1!1 - x_1!1 <= 0
 sum_2!3: y_0!3_1!1 - x_0!3 - x_1!1 >= -1
 idk_2!3!0: y_0!3_1!1 - x_0!3 <= 0
 idk_2!3!1: y_0!3_1!1 - x_1!1 <= 0
 sum_2!4: y_0!1_1!2 - x_0!1 - x_1!2 >= -1
 idk_2!4!0: y_0!1_1!2 - x_0!1 <= 0
 idk_2!4!1: y_0!1_1!2 - x_1!2 <= 0
 sum_2!5: y_0!2_1!2 - x_0!2 - x_1!2 >= -1
 idk_2!5!0: y_0!2_1!2 - x_0!2 <= 0
 idk_2!5!1: y_0!2_1!2 - x_1!2 <= 0
 sum_2!6: y_0!3_1!2 - x_0!3 - x_1!2 >= -1
 idk_2!6!0: y_0!3_1!2 - x_0!3 <= 0
 idk_2!6!1: y_0!3_1!2 - x_1!2 <= 0
 sum_2!7: y_0!1_1!3 - x_0!1 - x_1!3 >= -1
 idk_2!7!0: y_0!1_1!3 - x_0!1 <= 0
 idk_2!7!1: y_0!1_1!3 - x_1!3 <= 0
 sum_2!8: y_0!2_1!3 - x_0!2 - x_1!3 >= -1
 idk_2!8!0: y_0!2_1!3 - x_0!2 <= 0
 idk_2!8!1: y_0!2_1!3 - x_1!3 <= 0
 sum_2!9: y_0!3_1!3 - x_0!3 - x_1!3 >= -1
 idk_2!9!0: y_0!3_1!3 - x_0!3 <= 0
 idk_2!9!1: y_0!3_1!3 - x_1!3 <= 0
Bounds
 mu_0 free
 mu_1 free
 mu_2 free
Binary
 x_0!1 x_0!2 x_0!3 x_1!1 x_1!2 x_1!3 x_2!1 x_2!2 x_2!3
End
